c Random 4-CNF over 20 variables and 60 clauses
c Generated with `cnfgen`
c (C) 2012-2016 Massimo Lauria <lauria.massimo@gmail.com>
c https://massimolauria.github.io/cnfgen
c
c COMMAND LINE: cnfgen --output tmp-4-20-60.dimacs --output-format dimacs randkcnf 4 20 60
c
c sdimacs generated by gen-sdimacs
c
p cnf 20 60
e 11 12 13 14 15 16 17 18 19 20 0
r 0.37 1 2 3 4 5 6 7 8 9 10 0
-1 2 -5 20 0
-5 -7 8 12 0
-5 -11 -14 -15 0
7 -11 -16 -20 0
3 -5 6 10 0
-1 -8 -14 17 0
-1 -5 -9 10 0
-5 -9 -17 19 0
-4 -7 -10 -15 0
-4 -6 -11 -13 0
-4 7 -8 -10 0
4 5 -11 -12 0
-3 4 -5 -11 0
1 7 8 15 0
6 -7 9 -16 0
-5 -13 -16 18 0
-3 5 9 11 0
-10 13 15 -17 0
8 -12 -13 17 0
1 -8 13 20 0
-4 7 10 17 0
-11 13 -15 20 0
6 7 -10 19 0
-3 -4 -11 17 0
-3 5 9 -19 0
5 8 -13 -14 0
-2 4 -13 20 0
1 -9 13 -17 0
-3 7 8 13 0
8 -15 -16 19 0
-6 -9 13 18 0
2 -6 14 -17 0
4 7 -9 11 0
-9 -10 -12 19 0
2 3 -8 12 0
8 -11 -15 -19 0
-12 -13 16 18 0
-5 -13 -18 19 0
1 12 17 -20 0
-4 -6 8 15 0
-2 7 8 -13 0
-2 -4 17 20 0
-5 14 15 -19 0
12 14 -16 17 0
1 9 -11 12 0
7 -15 18 19 0
4 -6 13 17 0
-12 15 -18 20 0
-6 7 -12 16 0
-3 -9 -14 -20 0
6 7 -11 -19 0
1 -6 14 20 0
4 5 17 18 0
-7 -16 -18 -20 0
-12 13 -19 20 0
6 10 -14 -16 0
4 5 6 -14 0
-3 8 -11 15 0
-1 -8 19 -20 0
-3 5 -13 -14 0
